NAME: tsp20-11
TYPE: TSP
DIMENSION: 20
EDGE_WEIGHT_TYPE: EUC_2D
NODE_COORD_SECTION
0 92 79
1 32 43
2 23 38
3 39 62
4 95 89
5 45 80
6 64 7
7 49 37
8 37 59
9 67 44
10 43 12
11 51 22
12 60 7
13 83 48
14 25 57
15 33 38
16 59 85
17 16 96
18 61 60
19 13 72
EOF